0 1456
1 1430
2 1405
3 1388
4 1376
5 1369
6 1355
7 1339
8 1337
9 1334
10 1334
11 1334
12 1323
13 1313
14 1309
15 1308
16 1299
17 1287
18 1277
19 1276
20 1276
21 1272
22 1264
23 1253
24 1247
25 1239
26 1239
27 1232
28 1230
29 1227
30 1223
31 1221
32 1216
33 1216
34 1216
35 1209
36 1207
37 1207
38 1205
39 1192
40 1179
41 1163
42 1163
43 1163
44 1163
45 1163
46 1163
47 1156
48 1156
49 1154
50 1149
51 1146
52 1139
53 1137
54 1137
55 1137
56 1134
57 1132
58 1129
59 1128
60 1127
61 1125
62 1121
63 1119
64 1119
65 1116
66 1114
67 1114
68 1111
69 1110
70 1110
71 1110
72 1106
73 1105
74 1104
75 1100
76 1095
77 1094
78 1094
79 1092
80 1092
81 1090
82 1086
83 1086
84 1084
85 1084
86 1083
87 1083
88 1082
89 1076
90 1075
91 1067
92 1066
93 1066
94 1066
95 1064
96 1064
97 1062
98 1057
99 1057
100 1056
101 1055
102 1055
103 1053
104 1049
105 1048
106 1048
107 1047
108 1047
109 1044
110 1042
111 1042
112 1039
113 1038
114 1033
115 1031
116 1029
117 1027
118 1020
119 1019
120 1017
121 1013
122 1013
123 1009
124 1009
125 1009
126 1009
127 1005
128 1004
129 1004
130 1003
131 1003
132 1003
133 1002
134 1001
135 1000
136 999
137 993
138 992
139 992
140 992
141 990
142 988
143 988
144 987
145 986
146 986
147 986
148 985
149 985
150 985
151 985
152 983
153 983
154 980
155 980
156 980
157 979
158 979
159 979
160 978
161 977
162 975
163 974
164 974
165 973
166 973
167 970
168 969
169 969
170 969
171 966
172 966
173 965
174 964
175 963
176 963
177 963
178 963
179 962
180 960
181 957
182 957
183 953
184 952
185 952
186 951
187 946
188 946
189 942
190 940
191 940
192 940
193 940
194 937
195 935
196 933
197 933
198 933
199 933
200 931
201 929
202 928
203 928
204 928
205 927
206 926
207 926
208 925
209 925
210 923
211 921
212 920
213 920
214 920
215 919
216 919
217 915
218 915
219 913
220 913
221 911
222 910
223 908
224 907
225 907
226 907
227 907
228 905
229 904
230 904
231 904
232 904
233 902
234 900
235 900
236 899
237 898
238 896
239 894
240 893
241 892
242 892
243 892
244 890
245 890
246 889
247 889
248 889
249 888
250 886
251 886
252 886
253 885
254 885
255 884
256 883
257 882
258 882
259 882
260 879
261 879
262 877
263 877
264 877
265 877
266 875
267 875
268 874
269 874
270 874
271 874
272 874
273 873
274 872
275 872
276 869
277 868
278 868
279 867
280 867
281 866
282 866
283 866
284 866
285 866
286 866
287 866
288 866
289 865
290 865
291 865
292 865
293 862
294 862
295 862
296 862
297 861
298 861
299 861
300 861
301 860
302 860
303 858
304 858
305 858
306 858
307 858
308 858
309 857
310 857
311 857
312 856
313 856
314 856
315 855
316 853
317 853
318 853
319 853
320 853
321 853
322 853
323 851
324 851
325 851
326 851
327 851
328 851
329 847
330 846
331 846
332 845
333 845
334 845
335 845
336 844
337 844
338 844
339 844
340 844
341 844
342 844
343 843
344 842
345 842
346 842
347 842
348 842
349 842
350 842
351 842
352 842
353 841
354 841
355 841
356 840
357 837
358 837
359 837
360 837
361 836
362 835
363 835
364 834
365 834
366 833
367 833
368 832
369 832
370 831
371 831
372 830
373 830
374 830
375 829
376 829
377 829
378 828
379 826
380 826
381 824
382 823
383 823
384 823
385 823
386 823
387 823
388 823
389 822
390 822
391 822
392 822
393 822
394 822
395 822
396 819
397 818
398 817
399 817
400 816
401 815
402 814
403 814
404 814
405 814
406 812
407 812
408 812
409 812
410 812
411 812
412 812
413 811
414 811
415 811
416 811
417 811
418 809
419 809
420 808
421 808
422 807
423 806
424 806
425 805
426 805
427 805
428 805
429 805
430 805
431 805
432 805
433 805
434 804
435 803
436 803
437 802
438 802
439 799
440 799
441 799
442 799
443 798
444 798
445 798
446 798
447 797
448 794
449 794
450 794
451 794
452 794
453 794
454 792
455 792
456 792
457 792
458 792
459 792
460 792
461 792
462 791
463 790
464 789
465 788
466 788
467 788
468 787
469 787
470 786
471 786
472 786
473 786
474 785
475 785
476 784
477 784
478 784
479 784
480 783
481 783
482 783
483 783
484 783
485 782
486 782
487 782
488 782
489 782
490 782
491 782
492 782
493 781
494 781
495 780
496 780
497 779
498 779
499 779
500 779
501 779
502 779
503 779
504 778
505 778
506 778
507 777
508 777
509 777
510 777
511 777
512 777
513 777
514 777
515 774
516 774
517 773
518 773
519 773
520 773
521 773
522 773
523 773
524 773
525 773
526 773
527 773
528 771
529 770
530 770
531 770
532 769
533 769
534 769
535 769
536 769
537 769
538 769
539 769
540 768
541 768
542 768
543 768
544 768
545 768
546 768
547 768
548 768
549 768
550 768
551 768
552 767
553 767
554 767
555 767
556 767
557 767
558 767
559 767
560 767
561 767
562 767
563 767
564 767
565 767
566 767
567 767
568 764
569 764
570 763
571 763
572 763
573 763
574 763
575 763
576 763
577 762
578 762
579 762
580 762
581 762
582 762
583 762
584 762
585 762
586 761
587 761
588 760
589 760
590 760
591 759
592 759
593 759
594 759
595 758
596 758
597 758
598 758
599 758
600 757
601 756
602 756
603 756
604 756
605 756
606 756
607 756
608 756
609 756
610 756
611 756
612 755
613 755
614 754
615 754
616 753
617 753
618 753
619 752
620 752
621 752
622 751
623 751
624 751
625 750
626 748
627 748
628 748
629 748
630 748
631 748
632 748
633 748
634 746
635 746
636 746
637 746
638 746
639 746
640 746
641 746
642 746
643 746
644 746
645 746
646 746
647 745
648 745
649 744
650 744
651 744
652 744
653 744
654 744
655 744
656 744
657 743
658 743
659 743
660 743
661 743
662 743
663 743
664 742
665 742
666 742
667 742
668 742
669 742
670 742
671 742
672 742
673 742
674 742
675 742
676 741
677 740
678 740
679 737
680 737
681 736
682 736
683 736
684 735
685 735
686 735
687 735
688 735
689 733
690 733
691 731
692 731
693 730
694 730
695 730
696 729
697 729
698 729
699 729
700 729
701 727
702 727
703 727
704 727
705 727
706 727
707 727
708 727
709 727
710 727
711 727
712 727
713 727
714 727
715 727
716 727
717 727
718 727
719 727
720 727
721 727
722 727
723 725
724 725
725 724
726 724
727 724
728 724
729 724
730 724
731 723
732 723
733 723
734 723
735 723
736 723
737 721
738 720
739 720
740 720
741 720
742 720
743 720
744 720
745 720
746 720
747 719
748 719
749 719
750 719
751 718
752 718
753 718
754 718
755 718
756 718
757 718
758 718
759 715
760 715
761 715
762 715
763 715
764 715
765 715
766 715
767 715
768 715
769 715
770 715
771 715
772 715
773 715
774 715
775 715
776 715
777 715
778 715
779 715
780 714
781 714
782 714
783 713
784 713
785 713
786 713
787 713
788 713
789 710
790 710
791 710
792 710
793 710
794 710
795 710
796 710
797 710
798 710
799 710
800 710
801 710
802 710
803 710
804 710
805 710
806 710
807 710
808 710
809 710
810 710
811 709
812 709
813 709
814 709
815 709
816 709
817 709
818 709
819 708
820 708
821 708
822 707
823 707
824 707
825 707
826 707
827 707
828 707
829 707
830 707
831 707
832 707
833 705
834 705
835 705
836 705
837 705
838 705
839 705
840 704
841 704
842 704
843 704
844 704
845 704
846 703
847 703
848 703
849 703
850 703
851 703
852 703
853 703
854 703
855 703
856 703
857 703
858 703
859 703
860 703
861 702
862 702
863 702
864 701
865 701
866 701
867 701
868 701
869 701
870 701
871 701
872 701
873 701
874 700
875 700
876 700
877 700
878 700
879 700
880 700
881 699
882 699
883 699
884 699
885 699
886 699
887 699
888 698
889 698
890 698
891 697
892 697
893 697
894 697
895 697
896 697
897 697
898 697
899 697
900 697
901 697
902 697
903 697
904 697
905 697
906 696
907 696
908 696
909 696
910 696
911 696
912 696
913 696
914 696
915 694
916 694
917 694
918 694
919 694
920 694
921 694
922 694
923 694
924 694
925 694
926 694
927 694
928 694
929 694
930 694
931 693
932 693
933 693
934 693
935 693
936 693
937 693
938 693
939 693
940 693
941 693
942 692
943 692
944 692
945 692
946 692
947 692
948 692
949 691
950 691
951 691
952 691
953 691
954 691
955 691
956 691
957 691
958 691
959 691
960 691
961 691
962 691
963 691
964 689
965 689
966 689
967 689
968 689
969 689
970 689
971 689
972 689
973 689
974 689
975 689
976 689
977 689
978 689
979 689
980 689
981 689
982 689
983 689
984 689
985 689
986 689
987 689
988 689
989 689
990 689
991 689
992 689
993 689
994 689
995 689
996 688
997 688
998 688
999 688
